
%FILE DATA:	Soccer Computational Problem for MiniZinc Models	%
%AUTHOR:	Jack Wall	%
%CONTACT:  	116397063@umail.ucc.ie			%
%LAST UPDATE:	03/19/2020, 15:21:49						%
%DESCRIPTION: 	255 games played with 17 games left				%


n=17; %number of teams

%Games to play
games=[|6,13|11,15|9,7|15,5|3,14|2,6|1,9|11,14|15,3|8,17|2,7|6,16|16,10|5,3|11,8|6,7|2,13|];

%Initial points
iPoints=[55,27,40,42,31,42,45,36,42,40,45,40,41,37,35,42,45];

%POSITION CONSTRAINTS
% [|teamID, operator, position|...]
% operators index:
%  1 for =  operator
%  2 for >  operator
%  3 for >= operator
%  4 for <  operator
%  5 for <= operator
positionConstraints=[|1,4,2|7,1,2|17,5,3|];